NAME : single.3353.tour
COMMENT : Length = 3353
COMMENT : Found by LKH [Keld Helsgaun] Sun Aug 25 15:52:39 2024
TYPE : TOUR
DIMENSION : 23
TOUR_SECTION
1
23
22
20
19
18
17
16
14
15
21
13
12
11
10
9
8
6
7
5
2
3
4
-1
EOF
